language ESSENCE' 1.0
letting lastdx=90
letting cage be [
[45,14,8,13,8,13,9,0,0, 0,0],
[9,1,16,0,0, 0,0, 0,0, 0,0],
[9,13,2,0,0, 0,0, 0,0, 0,0],
[30,6,11,6,10,6,9,0,0, 0,0],
[36,8,16,7,16,6,16,0,0, 0,0],
[22,13,5,13,6,0,0, 0,0, 0,0],
[24,3,15,4,15,4,16,0,0, 0,0],
[9,15,8,0,0, 0,0, 0,0, 0,0],
[8,6,14,0,0, 0,0, 0,0, 0,0],
[35,4,11,4,10,5,10,5,9,0,0],
[50,15,13,15,14,14,14,14,15,14,16],
[7,15,10,0,0, 0,0, 0,0, 0,0],
[10,16,11,0,0, 0,0, 0,0, 0,0],
[8,14,1,0,0, 0,0, 0,0, 0,0],
[28,15,12,16,12,16,13,0,0, 0,0],
[11,8,4,0,0, 0,0, 0,0, 0,0],
[13,15,1,15,2,0,0, 0,0, 0,0],
[19,11,5,12,5,12,6,0,0, 0,0],
[35,12,11,12,12,12,13,12,14,13,14],
[31,16,14,16,15,16,16,0,0, 0,0],
[28,7,7,7,8,0,0, 0,0, 0,0],
[25,13,1,12,1,11,1,0,0, 0,0],
[11,11,7,10,7,0,0, 0,0, 0,0],
[27,3,9,3,10,3,11,0,0, 0,0],
[25,13,13,14,13,14,12,0,0, 0,0],
[47,11,9,12,9,12,8,11,8,10,8],
[20,1,11,1,12,1,13,0,0, 0,0],
[9,7,14,0,0, 0,0, 0,0, 0,0],
[14,3,7,0,0, 0,0, 0,0, 0,0],
[16,11,11,0,0, 0,0, 0,0, 0,0],
[20,12,7,13,7,14,7,0,0, 0,0],
[20,15,15,15,16,0,0, 0,0, 0,0],
[35,2,12,2,11,2,10,1,10,0,0],
[49,1,6,1,5,1,4,2,4,3,4],
[5,5,5,0,0, 0,0, 0,0, 0,0],
[8,16,9,16,10,0,0, 0,0, 0,0],
[30,11,14,11,15,12,15,12,16,11,16],
[21,2,16,3,16,2,15,2,14,0,0],
[44,15,5,15,6,15,7,16,7,16,8],
[22,9,10,9,9,9,8,0,0, 0,0],
[4,9,6,0,0, 0,0, 0,0, 0,0],
[21,1,15,1,14,0,0, 0,0, 0,0],
[30,15,4,16,4,16,5,16,6,0,0],
[13,7,3,7,4,6,4,0,0, 0,0],
[15,8,11,0,0, 0,0, 0,0, 0,0],
[12,5,12,5,11,0,0, 0,0, 0,0],
[9,9,4,0,0, 0,0, 0,0, 0,0],
[5,10,14,0,0, 0,0, 0,0, 0,0],
[35,10,10,10,9,10,11,10,12,10,13],
[22,8,5,9,5,0,0, 0,0, 0,0],
[2,8,15,0,0, 0,0, 0,0, 0,0],
[7,2,5,0,0, 0,0, 0,0, 0,0],
[38,9,15,9,16,10,16,10,15,0,0],
[16,2,2,0,0, 0,0, 0,0, 0,0],
[41,6,1,6,2,7,2,7,1,0,0],
[40,1,3,1,2,1,1,2,1,3,1],
[25,5,4,4,4,0,0, 0,0, 0,0],
[37,3,2,3,3,2,3,4,3,4,2],
[14,9,11,9,12,0,0, 0,0, 0,0],
[37,13,12,13,11,14,11,15,11,0,0],
[48,7,9,8,9,8,8,8,7,9,7],
[26,4,8,3,8,4,9,0,0, 0,0],
[11,8,13,8,12,0,0, 0,0, 0,0],
[46,5,13,5,14,5,15,5,16,0,0],
[26,13,10,12,10,11,10,0,0, 0,0],
[12,13,16,13,15,0,0, 0,0, 0,0],
[10,9,13,0,0, 0,0, 0,0, 0,0],
[30,3,5,3,6,2,6,0,0, 0,0],
[47,14,5,14,6,14,4,14,3,14,2],
[12,5,1,4,1,0,0, 0,0, 0,0],
[24,3,14,4,14,0,0, 0,0, 0,0],
[16,12,2,12,3,0,0, 0,0, 0,0],
[21,2,7,1,7,0,0, 0,0, 0,0],
[15,7,10,8,10,0,0, 0,0, 0,0],
[21,14,10,14,9,15,9,0,0, 0,0],
[32,2,13,3,13,4,13,4,12,3,12],
[6,4,5,0,0, 0,0, 0,0, 0,0],
[9,4,6,0,0, 0,0, 0,0, 0,0],
[15,5,2,0,0, 0,0, 0,0, 0,0],
[11,5,3,6,3,0,0, 0,0, 0,0],
[11,5,6,0,0, 0,0, 0,0, 0,0],
[9,6,5,0,0, 0,0, 0,0, 0,0],
[24,6,6,7,6,7,5,8,6,0,0],
[12,6,15,7,15,0,0, 0,0, 0,0],
[9,8,1,0,0, 0,0, 0,0, 0,0],
[34,8,2,9,2,9,1,10,1,10,2],
[17,8,3,9,3,0,0, 0,0, 0,0],
[16,8,14,9,14,0,0, 0,0, 0,0],
[22,10,6,11,6,0,0, 0,0, 0,0],
[17,11,12,11,13,0,0, 0,0, 0,0],
[40,15,3,16,3,16,2,16,1,0,0]
]
